SDVRP instances/custom_instances/p02_20_splitx10_0.vrp
NAME:p02_20_splitx10_
BEST_KNOWN: 0
COMMENT: 0
DIMENSION: 320
CAPACITY: 1400
EDGE_WEIGHT_FORMAT: FUNCTION
EDGE_WEIGHT_TYPE: EXACT_2D
NODE_COORD_SECTION
1 0.00000 0.00000
2 16 34
3 16 34
4 16 34
5 16 34
6 16 34
7 16 34
8 16 34
9 -6 -36
10 -6 -36
11 -6 -36
12 -6 -36
13 -6 -36
14 -6 -36
15 42 26
16 29 32
17 29 32
18 29 32
19 29 32
20 29 32
21 29 32
22 29 32
23 -6 -7
24 -6 -7
25 -6 -7
26 -6 -7
27 -6 -7
28 -6 -7
29 47 23
30 47 23
31 47 23
32 47 23
33 47 23
34 -1 -2
35 49 -42
36 49 -42
37 49 -42
38 49 -42
39 46 6
40 46 6
41 46 6
42 46 6
43 42 47
44 42 47
45 25 39
46 25 39
47 25 39
48 25 39
49 25 39
50 -37 -12
51 -37 -12
52 -37 -12
53 -37 -12
54 -37 -12
55 -10 -4
56 -10 -4
57 -10 -4
58 -10 -4
59 -10 -4
60 -10 -4
61 -40 -49
62 -40 -49
63 -41 13
64 -41 13
65 -41 13
66 11 -23
67 11 -23
68 11 -23
69 11 -23
70 22 -37
71 22 -37
72 22 -37
73 22 -37
74 8 -43
75 8 -43
76 8 -43
77 8 -43
78 8 -43
79 8 -43
80 -21 4
81 -21 4
82 -21 4
83 -21 4
84 -24 -19
85 -24 -19
86 -24 -19
87 -24 -19
88 -24 -19
89 -24 -19
90 -13 -1
91 -13 -1
92 -13 -1
93 -13 -1
94 -13 -1
95 -39 -25
96 -39 -25
97 -40 46
98 -40 46
99 -40 46
100 36 1
101 36 1
102 36 1
103 36 1
104 36 1
105 -27 -22
106 -27 -22
107 -27 -22
108 -27 -22
109 -27 -22
110 -27 -22
111 -27 -22
112 -22 45
113 -22 45
114 -22 45
115 -22 45
116 -22 45
117 42 -37
118 42 -37
119 7 -38
120 -38 -27
121 -38 -27
122 -38 -27
123 -38 -27
124 -38 -27
125 24 32
126 24 32
127 24 32
128 24 32
129 -40 34
130 -40 34
131 -40 34
132 -40 34
133 -40 34
134 -40 34
135 -40 34
136 -34 50
137 -34 50
138 42 19
139 42 19
140 42 19
141 -1 -48
142 -1 -48
143 -1 -48
144 -1 -48
145 -1 -48
146 -1 -48
147 -22 -5
148 -22 -5
149 -5 13
150 -5 13
151 -5 13
152 -5 13
153 -5 13
154 -5 13
155 39 -25
156 39 -25
157 39 -25
158 39 -25
159 39 -25
160 7 -42
161 7 -42
162 7 -42
163 7 -42
164 7 -42
165 7 -42
166 7 -42
167 -1 -26
168 -1 -26
169 -1 -26
170 -1 -26
171 7 -7
172 7 -7
173 7 -7
174 7 -7
175 7 -7
176 48 33
177 48 33
178 48 33
179 48 33
180 21 22
181 21 22
182 -22 19
183 -22 19
184 -22 19
185 -17 -19
186 -17 -19
187 15 7
188 15 7
189 15 7
190 15 7
191 7 3
192 7 3
193 7 3
194 -38 -12
195 -38 -12
196 42 22
197 42 22
198 32 -11
199 32 -11
200 32 -11
201 32 -11
202 32 -11
203 32 -11
204 19 44
205 19 44
206 19 44
207 19 44
208 19 44
209 19 44
210 19 44
211 10 -6
212 10 -6
213 10 -6
214 10 -6
215 15 0
216 15 0
217 15 0
218 15 0
219 -4 -32
220 -4 -32
221 -4 -32
222 -4 -32
223 -4 -32
224 10 18
225 10 18
226 10 18
227 10 18
228 10 18
229 32 28
230 32 28
231 32 28
232 32 28
233 32 28
234 34 1
235 34 1
236 34 1
237 34 1
238 4 27
239 4 27
240 4 27
241 4 27
242 4 27
243 4 27
244 4 27
245 41 6
246 41 6
247 41 6
248 41 6
249 41 6
250 -18 -30
251 -18 -30
252 35 19
253 35 19
254 35 19
255 -19 37
256 -19 37
257 -19 37
258 -19 37
259 -19 37
260 -19 37
261 50 -23
262 50 -23
263 50 -23
264 50 -23
265 20 -42
266 20 -42
267 20 -42
268 20 -42
269 20 -42
270 20 -42
271 20 -42
272 20 -42
273 -12 -44
274 -12 -44
275 -12 -44
276 -12 -44
277 -12 -44
278 -9 48
279 -9 48
280 -9 48
281 32 -17
282 32 -17
283 32 -17
284 32 -17
285 32 -17
286 13 -32
287 13 -32
288 13 -32
289 -42 37
290 -42 37
291 -42 37
292 -42 37
293 -43 -18
294 -43 -18
295 -43 -18
296 9 8
297 9 8
298 9 8
299 9 8
300 9 8
301 -33 -13
302 -33 -13
303 -33 -13
304 -33 -13
305 39 20
306 39 20
307 39 20
308 39 20
309 -27 -44
310 -27 -44
311 -27 -44
312 -27 -44
313 -27 -44
314 -33 30
315 -33 30
316 -33 30
317 -33 30
318 -33 30
319 23 17
320 23 17
DEMAND_SECTION
1 0
2 280
3 70
4 14
5 14
6 14
7 14
8 4
9 280
10 280
11 70
12 14
13 14
14 12
15 280
16 280
17 140
18 70
19 14
20 14
21 14
22 8
23 280
24 280
25 70
26 14
27 14
28 2
29 140
30 70
31 14
32 14
33 12
34 280
35 140
36 14
37 14
38 12
39 280
40 280
41 70
42 10
43 280
44 140
45 140
46 14
47 14
48 14
49 8
50 280
51 14
52 14
53 14
54 8
55 280
56 280
57 70
58 14
59 14
60 12
61 280
62 70
63 280
64 70
65 10
66 280
67 14
68 14
69 2
70 280
71 140
72 14
73 6
74 280
75 280
76 70
77 14
78 14
79 2
80 140
81 14
82 14
83 2
84 140
85 70
86 14
87 14
88 14
89 8
90 280
91 70
92 14
93 14
94 12
95 280
96 70
97 280
98 14
99 6
100 140
101 14
102 14
103 14
104 8
105 280
106 280
107 14
108 14
109 14
110 14
111 4
112 280
113 70
114 14
115 14
116 12
117 280
118 10
119 280
120 280
121 14
122 14
123 14
124 8
125 280
126 280
127 70
128 10
129 280
130 280
131 14
132 14
133 14
134 14
135 4
136 280
137 70
138 280
139 70
140 10
141 280
142 280
143 14
144 14
145 14
146 8
147 280
148 70
149 280
150 280
151 70
152 14
153 14
154 2
155 140
156 70
157 14
158 14
159 2
160 280
161 140
162 70
163 14
164 14
165 14
166 8
167 140
168 14
169 14
170 12
171 280
172 70
173 14
174 14
175 2
176 280
177 280
178 70
179 10
180 140
181 70
182 280
183 140
184 10
185 280
186 10
187 280
188 140
189 70
190 10
191 280
192 14
193 6
194 280
195 70
196 280
197 140
198 280
199 140
200 70
201 14
202 14
203 2
204 140
205 70
206 14
207 14
208 14
209 14
210 4
211 280
212 140
213 14
214 6
215 140
216 14
217 14
218 2
219 140
220 70
221 14
222 14
223 12
224 280
225 70
226 14
227 14
228 2
229 280
230 140
231 70
232 14
233 6
234 280
235 280
236 14
237 6
238 140
239 70
240 14
241 14
242 14
243 14
244 4
245 140
246 14
247 14
248 14
249 8
250 280
251 140
252 280
253 140
254 10
255 140
256 14
257 14
258 14
259 14
260 4
261 280
262 70
263 14
264 6
265 280
266 140
267 70
268 14
269 14
270 14
271 14
272 4
273 280
274 140
275 14
276 14
277 12
278 280
279 280
280 10
281 140
282 70
283 14
284 14
285 2
286 280
287 280
288 140
289 280
290 280
291 70
292 10
293 280
294 140
295 10
296 140
297 14
298 14
299 14
300 8
301 140
302 14
303 14
304 2
305 280
306 14
307 14
308 2
309 280
310 140
311 14
312 14
313 2
314 280
315 280
316 14
317 14
318 12
319 280
320 10
DEPOT_SECTION
1
-1
EOF