SDVRP instances/custom_instances/p02_20_splitx10_0.sol
319 -14 177 178 176 175 43 42 297 299 298 296 -26 23 24 25 27 22 55 57 59 56 54 58 -33 185 184 106 108 109 107 110 105 104 83 84 -50 51 53 49 52 193 146 147 90 91 92 89 93 -60 61 311 308 310 312 309 249 250 -66 67 68 65 116 117 37 34 36 35 262 263 260 261 158 157 154 156 155 -70 72 71 69 268 264 269 271 265 267 270 266 285 -80 82 81 79 64 62 63 128 130 129 181 -86 88 87 85 119 122 123 121 120 95 94 293 294 292 194 300 303 302 301 -100 102 101 99 103 41 39 38 40 248 245 244 246 247 186 188 189 -118 162 165 163 73 74 78 77 76 75 286 287 -126 127 125 124 16 17 20 18 21 19 15 179 180 -131 134 133 132 290 289 291 288 98 96 97 135 136 115 114 113 256 -150 149 152 148 315 316 313 317 314 183 182 -151 153 255 258 254 257 259 111 112 277 278 279 240 238 239 243 242 237 241 -159 164 160 161 141 143 145 142 144 140 169 166 168 167 -172 174 170 171 173 212 213 211 210 215 216 217 214 190 -187 251 253 252 228 229 230 231 232 319 318 -192 191 138 139 137 32 29 30 28 31 196 195 306 304 307 305 -218 222 220 221 219 13 8 11 9 12 10 275 276 273 272 274 -226 224 227 223 225 2 6 3 1 7 5 4 203 205 206 208 209 204 207 44 46 47 45 48 295 -236 234 235 233 198 199 202 197 200 201 284 281 280 282 283 0 





OBJ=
2138.647
BEST_KNOWN=
0.000